certificates/rado_a9_c8_N20.cnf
c Rad2 upper bound instance: x1 + 9*x2 - x3 = 8, interval [1,20]
p cnf 20 60
1 2 0
-1 -2 0
1 2 11 0
-1 -2 -11 0
1 3 20 0
-1 -3 -20 0
1 2 3 0
-1 -2 -3 0
2 12 0
-2 -12 0
1 3 4 0
-1 -3 -4 0
2 3 13 0
-2 -3 -13 0
1 4 5 0
-1 -4 -5 0
2 4 14 0
-2 -4 -14 0
1 5 6 0
-1 -5 -6 0
2 5 15 0
-2 -5 -15 0
1 6 7 0
-1 -6 -7 0
2 6 16 0
-2 -6 -16 0
1 7 8 0
-1 -7 -8 0
2 7 17 0
-2 -7 -17 0
1 8 9 0
-1 -8 -9 0
2 8 18 0
-2 -8 -18 0
1 9 10 0
-1 -9 -10 0
2 9 19 0
-2 -9 -19 0
1 10 11 0
-1 -10 -11 0
2 10 20 0
-2 -10 -20 0
1 11 12 0
-1 -11 -12 0
1 12 13 0
-1 -12 -13 0
1 13 14 0
-1 -13 -14 0
1 14 15 0
-1 -14 -15 0
1 15 16 0
-1 -15 -16 0
1 16 17 0
-1 -16 -17 0
1 17 18 0
-1 -17 -18 0
1 18 19 0
-1 -18 -19 0
1 19 20 0
-1 -19 -20 0
