certificates/rado_a9_c8_N20.drat
-19 -20 0
d -19 -1 -20 0
9 10 19 0
-2 19 0
-20 0
19 0
2 0
-1 0
-12 0
-9 0
3 0
13 0
11 0
10 0
8 0
0
